702 5
10 10 10 10 10 

0 0 0 0 0 0 5 2 54 66 118 170 
0 0 0 0 0 0 1 3 
8 4 7 4 5 3 2 8 4 
1 6 10 10 10 9 1 5 
9 6 8 4 5 7 1 6 
10 10 5 6 7 10 1 7 
8 9 10 7 8 8 2 12 9 
3 10 8 6 5 9 1 9 
6 8 3 7 7 6 1 10 
5 7 4 10 7 7 1 11 
7 6 7 10 5 5 1 13 
6 3 5 10 10 9 1 13 
1 10 9 10 10 7 1 14 
7 8 7 6 6 10 1 15 
2 7 6 6 5 9 2 17 16 
10 8 8 7 10 7 2 22 18 
4 10 10 10 10 9 1 18 
7 10 5 7 8 10 1 19 
8 10 10 7 8 7 1 20 
8 6 8 8 8 9 3 27 26 21 
4 8 10 10 5 10 2 29 23 
10 7 8 10 10 8 2 29 24 
3 4 8 7 8 10 1 24 
10 10 10 9 8 3 1 25 
2 9 8 10 7 9 2 31 28 
8 8 10 7 9 6 1 29 
7 9 5 7 9 5 1 28 
10 8 6 10 6 7 1 30 
4 9 6 6 6 9 1 30 
10 8 6 5 6 7 1 32 
2 5 10 4 8 10 2 36 34 
4 9 10 7 10 9 1 33 
9 7 8 8 7 10 1 34 
5 7 10 6 10 4 2 37 35 
5 6 10 4 5 6 2 42 38 
4 5 10 10 10 8 2 42 39 
1 10 7 9 2 6 2 42 40 
8 10 6 10 4 6 1 39 
8 6 10 8 8 10 1 40 
7 9 6 10 9 9 1 41 
6 10 7 5 6 4 2 48 43 
8 9 6 4 10 5 2 48 44 
1 9 6 9 7 10 1 44 
10 6 9 7 9 8 1 45 
4 2 9 6 9 7 1 46 
7 8 3 7 8 6 2 47 309 
5 2 5 6 6 5 1 49 
3 10 8 7 5 7 1 49 
2 8 5 10 10 10 2 52 50 
6 5 5 5 10 6 1 51 
5 6 8 7 10 9 1 53 
10 8 10 10 4 5 1 53 
0 0 0 0 0 0 1 702 
0 0 0 0 0 0 4 55 59 61 674 
8 0 0 0 0 1 2 64 56 
2 0 0 0 0 7 1 57 
6 0 0 0 0 10 1 58 
1 0 0 0 0 8 1 60 
1 0 0 0 0 8 2 64 63 
1 0 0 0 0 10 1 62 
9 0 0 0 0 10 1 62 
10 0 0 0 0 5 1 63 
4 0 0 0 0 10 1 65 
6 0 0 0 0 6 1 65 
0 0 0 0 0 0 5 222 264 306 348 360 
0 0 0 0 0 0 1 67 
3 2 4 2 3 3 2 78 68 
9 8 7 10 7 8 1 69 
7 3 9 7 10 9 1 70 
7 6 3 8 6 5 1 71 
8 7 5 9 9 10 2 77 72 
4 6 5 10 8 6 1 73 
7 7 10 10 10 7 1 74 
6 10 8 10 6 8 1 75 
7 8 10 6 10 6 2 76 345 
8 8 5 7 4 6 3 97 82 79 
3 6 3 4 3 9 3 97 82 79 
5 10 8 9 8 4 2 97 79 
8 10 5 6 10 9 1 80 
7 6 10 7 9 5 1 81 
3 6 7 4 6 4 1 83 
6 8 8 5 10 6 1 83 
6 10 10 9 8 10 1 84 
7 10 10 7 6 10 3 94 92 85 
6 10 6 5 10 4 2 98 86 
4 4 6 9 9 5 1 87 
3 8 10 10 9 9 1 88 
9 9 6 3 7 9 2 95 89 
8 10 8 10 10 8 1 90 
8 10 10 10 4 10 1 91 
7 6 9 10 10 7 1 93 
10 6 9 8 8 7 1 93 
2 6 4 9 10 7 2 100 96 
2 7 10 8 5 6 2 112 98 
9 9 5 5 10 10 3 112 104 101 
4 7 9 9 6 6 2 112 99 
1 10 10 8 7 10 2 112 101 
1 4 8 5 10 6 1 99 
7 5 6 6 5 7 1 101 
10 8 10 4 7 10 2 112 103 
8 7 2 7 9 8 1 102 
3 10 8 5 7 5 1 103 
9 6 6 7 6 8 1 105 
5 10 4 9 8 9 1 105 
3 9 9 8 10 10 2 116 106 
8 7 7 9 6 6 1 107 
4 7 8 10 8 7 1 108 
5 9 8 9 10 10 1 109 
8 10 8 9 6 9 1 110 
10 6 10 7 10 10 1 111 
9 9 7 10 7 9 2 115 113 
2 5 9 8 4 7 1 113 
5 4 10 10 7 10 1 114 
1 7 10 8 7 7 1 117 
5 10 8 4 7 10 1 117 
10 9 8 6 3 4 1 117 
0 0 0 0 0 0 1 702 
0 0 0 0 0 0 2 119 396 
4 5 5 4 4 5 2 124 120 
2 7 6 7 9 6 1 121 
4 7 10 7 10 3 1 122 
2 8 10 3 7 7 1 123 
8 6 9 7 9 6 2 128 125 
4 8 5 8 10 4 1 125 
8 9 9 10 3 3 1 126 
7 9 1 10 7 6 1 127 
6 7 5 6 4 10 1 129 
5 4 6 8 7 6 1 129 
1 7 3 6 7 6 1 130 
7 8 8 10 6 10 2 133 131 
6 8 10 6 5 7 1 132 
1 8 8 10 7 7 2 138 134 
2 10 7 10 10 7 1 134 
6 6 10 10 7 7 1 135 
3 10 9 10 9 7 1 136 
7 5 5 7 7 10 3 143 142 137 
3 8 9 6 8 9 2 148 139 
2 7 4 6 10 5 2 148 141 
1 5 8 8 4 9 1 140 
1 10 9 7 8 10 1 141 
1 10 8 5 10 6 2 146 144 
9 10 8 7 8 6 2 148 145 
2 6 9 10 10 7 1 144 
9 5 9 10 5 10 1 145 
10 8 8 10 8 10 1 147 
4 7 6 5 10 9 2 152 150 
3 4 7 8 5 10 1 149 
4 7 4 6 10 10 1 149 
2 7 9 4 8 6 1 150 
4 7 7 9 5 10 2 153 151 
1 5 10 10 10 7 2 158 154 
2 10 10 8 4 5 2 158 155 
5 4 7 9 9 7 2 158 156 
9 8 10 5 10 5 1 155 
10 10 9 6 7 10 1 156 
9 10 10 6 5 10 1 157 
3 10 8 10 10 4 2 165 159 
1 5 7 7 10 9 2 165 161 
10 5 9 8 7 10 1 160 
1 7 3 9 6 5 1 161 
6 10 5 10 8 10 1 162 
6 7 6 5 8 10 1 163 
9 9 8 4 10 6 1 164 
5 10 9 10 5 7 2 168 166 
9 6 9 10 7 10 2 168 167 
6 9 10 7 4 9 1 167 
3 7 7 5 10 7 1 169 
3 10 7 6 8 10 1 169 
0 0 0 0 0 0 1 702 
0 0 0 0 0 0 1 171 
6 1 5 4 2 4 2 175 172 
6 7 10 6 5 8 1 173 
7 10 8 8 6 4 1 174 
9 9 8 7 8 7 1 176 
2 8 7 9 7 9 1 176 
8 10 5 10 5 9 2 180 177 
7 9 6 10 9 10 1 178 
7 5 10 8 8 7 1 179 
5 10 5 10 10 8 1 181 
10 7 10 7 3 10 1 181 
7 10 8 5 6 8 1 182 
9 9 8 9 5 10 1 183 
4 10 7 8 9 9 2 185 184 
3 10 5 10 10 7 2 190 186 
6 10 10 5 8 5 1 186 
6 8 8 10 10 9 1 187 
4 7 8 6 7 10 1 188 
9 10 3 10 6 8 3 194 193 189 
5 7 10 8 4 7 2 197 191 
6 9 7 9 8 10 2 197 191 
2 9 10 6 8 7 1 192 
1 6 9 7 10 6 1 195 
6 3 3 7 10 6 1 195 
9 9 6 6 9 4 3 203 197 196 
3 10 6 7 10 10 2 198 196 
6 2 9 5 8 7 1 199 
3 4 10 9 7 7 1 199 
7 9 6 8 4 5 2 203 201 
9 7 10 7 10 4 1 200 
9 10 10 5 7 4 1 201 
10 9 7 10 9 7 2 202 225 
1 10 7 9 7 8 2 205 204 
5 3 7 5 8 7 2 205 204 
8 7 9 8 10 7 2 210 206 
3 5 7 3 9 7 2 210 208 
4 6 10 7 4 10 1 207 
7 7 7 10 7 9 1 208 
3 7 5 3 9 5 1 209 
4 9 6 10 9 10 2 215 211 
6 8 10 7 10 7 2 215 211 
9 6 10 10 9 6 1 212 
7 7 5 8 5 9 1 213 
10 4 10 5 9 4 1 214 
8 5 6 10 6 10 1 216 
2 10 6 6 8 9 1 216 
9 9 10 9 6 8 1 217 
8 6 3 6 4 9 2 220 218 
2 7 10 7 8 10 1 219 
6 5 3 10 9 7 1 221 
10 10 10 6 10 7 1 221 
0 0 0 0 0 0 1 702 
0 0 0 0 0 0 3 223 261 262 
5 7 0 6 2 1 1 224 
7 8 0 9 8 7 1 225 
5 6 0 5 3 10 1 226 
3 9 0 7 7 10 4 260 259 227 621 
2 10 0 8 10 7 1 228 
2 10 0 9 10 8 1 229 
6 8 0 9 9 9 1 230 
2 8 0 9 10 8 1 231 
10 10 0 8 7 5 1 232 
7 10 0 6 3 7 2 258 233 
10 2 0 3 9 6 3 257 256 234 
3 10 0 10 4 5 1 235 
8 6 0 5 6 6 1 236 
5 8 0 7 9 9 1 237 
1 10 0 10 6 5 1 238 
3 8 0 10 9 7 2 255 239 
3 7 0 3 10 10 2 254 240 
8 6 0 8 7 10 2 253 241 
2 6 0 5 8 7 1 242 
4 5 0 8 10 10 1 243 
4 10 0 8 6 9 1 244 
5 9 0 10 6 7 1 245 
5 7 0 5 10 10 1 246 
5 3 0 9 10 6 1 247 
8 10 0 4 4 6 1 248 
1 6 0 8 7 7 1 249 
5 5 0 8 6 10 1 250 
6 6 0 10 10 7 1 251 
6 9 0 6 8 7 1 252 
7 10 0 7 6 2 1 263 
7 7 0 10 7 10 1 263 
6 10 0 10 3 7 1 263 
2 5 0 10 8 10 1 263 
8 6 0 10 10 6 1 263 
7 10 0 10 10 6 1 263 
4 5 0 7 8 9 1 263 
10 5 0 5 7 8 1 263 
5 6 0 7 9 10 1 263 
5 10 0 4 8 7 1 263 
5 7 0 7 10 9 1 263 
0 0 0 0 0 0 1 702 
0 0 0 0 0 0 2 265 266 
6 5 4 5 6 0 2 269 268 
10 7 10 6 7 0 1 267 
4 5 7 8 8 0 1 268 
5 5 10 5 8 0 1 270 
10 3 6 10 3 0 1 270 
8 10 7 6 8 0 1 271 
4 10 6 10 6 0 1 272 
9 10 10 10 8 0 1 273 
4 6 7 7 6 0 2 276 274 
5 6 10 7 7 0 1 275 
9 8 6 6 10 0 1 277 
1 10 5 10 9 0 1 277 
10 6 10 10 8 0 1 278 
6 9 10 8 6 0 1 279 
1 4 10 7 10 0 1 280 
7 7 7 5 8 0 1 281 
3 8 10 9 7 0 3 284 283 282 
4 8 5 9 8 0 2 288 286 
8 8 5 10 7 0 1 285 
8 9 4 7 10 0 2 288 287 
3 6 7 10 5 0 2 286 441 
6 5 8 7 7 0 1 287 
10 5 10 7 7 0 2 292 289 
3 8 5 9 7 0 2 292 289 
4 10 10 8 9 0 1 290 
5 10 6 5 10 0 1 291 
10 10 5 4 10 0 2 294 293 
8 5 6 5 10 0 2 298 293 
3 8 6 9 7 0 1 295 
2 8 5 8 7 0 3 300 298 297 
10 6 10 7 7 0 1 296 
5 10 8 3 6 0 2 300 297 
8 6 10 8 5 0 1 299 
3 7 8 10 6 0 1 299 
6 5 9 5 8 0 1 301 
6 8 6 9 6 0 1 301 
5 10 6 10 9 0 1 302 
9 10 6 6 4 0 1 303 
6 9 10 10 10 0 1 304 
6 10 10 5 10 0 1 305 
0 0 0 0 0 0 1 702 
0 0 0 0 0 0 3 307 318 324 
1 8 0 4 3 4 1 308 
2 4 0 8 9 3 1 309 
1 6 0 10 9 10 1 310 
6 7 0 4 5 9 1 311 
4 7 0 8 8 6 2 321 312 
9 2 0 10 6 6 1 313 
8 8 0 8 9 10 1 314 
10 9 0 10 9 10 1 315 
9 7 0 4 5 7 1 316 
10 7 0 8 7 8 1 317 
2 6 0 9 10 7 2 346 319 
3 10 0 10 9 8 2 346 319 
4 9 0 7 6 4 1 320 
6 10 0 10 10 4 2 345 322 
1 10 0 8 10 5 2 345 322 
9 9 0 7 7 8 3 336 323 399 
9 5 0 8 10 5 2 344 325 
2 7 0 3 10 8 1 325 
3 6 0 6 9 10 1 326 
1 9 0 6 5 8 1 327 
9 7 0 7 8 3 1 328 
5 7 0 10 6 8 2 343 329 
10 10 0 9 4 10 3 342 341 330 
8 10 0 10 9 10 1 331 
1 6 0 9 10 9 1 332 
8 5 0 4 6 8 1 333 
3 10 0 5 8 10 1 334 
6 10 0 10 8 10 1 335 
3 4 0 8 10 7 1 337 
4 5 0 9 10 7 1 337 
7 9 0 6 7 5 1 338 
4 10 0 9 3 5 1 339 
10 8 0 9 5 8 1 340 
6 9 0 10 10 10 1 347 
6 7 0 5 10 8 1 347 
2 7 0 7 6 10 1 347 
5 4 0 5 5 8 1 347 
5 10 0 3 6 10 1 347 
8 10 0 7 7 6 1 347 
1 6 0 10 6 8 1 347 
0 0 0 0 0 0 1 702 
0 0 0 0 0 0 1 349 
5 2 0 0 0 0 2 351 350 
6 9 0 0 0 0 2 355 352 
6 4 0 0 0 0 3 355 353 657 
7 8 0 0 0 0 1 353 
3 10 0 0 0 0 1 354 
3 10 0 0 0 0 2 358 356 
6 10 0 0 0 0 2 358 356 
3 9 0 0 0 0 1 357 
3 7 0 0 0 0 1 359 
7 6 0 0 0 0 1 359 
0 0 0 0 0 0 5 402 434 466 498 530 
0 0 0 0 0 0 3 361 374 383 
1 5 0 6 5 4 1 362 
1 5 0 6 10 10 1 363 
8 6 0 4 7 10 1 364 
5 5 0 4 4 10 1 365 
6 10 0 6 7 10 2 379 366 
9 5 0 4 4 7 1 367 
4 7 0 7 10 7 1 368 
10 8 0 10 8 7 1 369 
2 10 0 7 5 5 1 370 
8 3 0 10 10 6 2 400 371 
8 6 0 5 6 4 1 372 
1 6 0 10 8 8 1 373 
9 10 0 10 7 10 2 399 375 
4 4 0 10 7 10 2 400 375 
1 5 0 5 9 8 3 398 392 376 
10 4 0 10 9 3 2 377 575 
10 9 0 10 7 7 1 378 
9 10 0 4 4 10 1 380 
5 7 0 9 9 4 1 380 
1 6 0 9 10 10 1 381 
8 7 0 7 10 5 2 395 382 
6 9 0 8 10 8 3 397 396 384 
1 10 0 10 4 3 2 395 384 
2 7 0 10 8 7 1 385 
8 10 0 10 10 9 1 386 
10 10 0 10 8 10 1 387 
1 9 0 10 10 10 1 388 
7 3 0 7 4 10 1 389 
6 10 0 7 10 8 1 390 
4 10 0 3 6 6 1 391 
7 10 0 6 8 10 1 393 
5 10 0 2 5 10 1 393 
9 6 0 5 3 5 1 394 
8 10 0 9 6 7 1 401 
8 10 0 10 6 7 1 401 
1 9 0 3 10 10 1 401 
9 9 0 10 9 7 1 401 
1 9 0 10 10 8 1 401 
10 7 0 7 7 4 1 401 
3 4 0 10 10 6 1 401 
0 0 0 0 0 0 1 702 
0 0 0 0 0 0 2 403 406 
10 3 4 0 6 0 1 404 
1 9 6 0 8 0 1 405 
2 10 3 0 5 0 1 407 
5 6 9 0 7 0 1 407 
2 10 5 0 8 0 1 408 
6 9 10 0 5 0 2 412 409 
9 5 5 0 9 0 1 410 
3 9 9 0 10 0 1 411 
6 4 6 0 8 0 3 415 414 413 
1 3 7 0 8 0 2 414 413 
8 6 9 0 7 0 2 417 416 
6 7 10 0 9 0 1 416 
2 8 6 0 9 0 1 416 
5 6 10 0 8 0 3 421 419 418 
5 7 5 0 5 0 3 421 419 418 
5 7 10 0 3 0 1 420 
4 4 7 0 8 0 1 420 
10 6 9 0 10 0 1 422 
7 9 10 0 10 0 1 422 
10 10 8 0 10 0 1 423 
8 10 10 0 9 0 1 424 
1 7 10 0 5 0 2 427 425 
5 8 9 0 10 0 1 426 
2 10 6 0 9 0 1 428 
3 10 5 0 8 0 1 428 
8 10 7 0 5 0 1 429 
3 10 10 0 8 0 2 430 643 
4 8 5 0 6 0 1 431 
3 6 7 0 8 0 1 432 
4 8 8 0 4 0 1 433 
0 0 0 0 0 0 1 702 
0 0 0 0 0 0 2 435 439 
2 0 4 4 0 4 1 436 
9 0 10 10 0 9 1 437 
4 0 6 7 0 4 1 438 
3 0 10 7 0 6 1 440 
3 0 9 10 0 10 1 440 
7 0 4 10 0 5 2 445 441 
8 0 8 6 0 7 1 442 
10 0 10 5 0 9 1 443 
7 0 10 7 0 6 3 448 447 444 
8 0 5 7 0 10 2 449 446 
4 0 9 7 0 8 2 449 446 
6 0 8 9 0 10 3 453 452 450 
7 0 6 10 0 10 2 452 450 
2 0 9 10 0 8 2 452 450 
1 0 5 6 0 10 2 452 451 
3 0 6 9 0 6 2 451 628 
1 0 7 3 0 10 1 454 
10 0 5 7 0 6 1 454 
2 0 10 4 0 7 1 454 
7 0 5 6 0 9 1 455 
6 0 9 10 0 9 1 456 
8 0 10 7 0 10 2 460 457 
6 0 6 8 0 5 1 458 
6 0 7 10 0 8 1 459 
7 0 9 8 0 7 1 461 
2 0 7 8 0 5 1 461 
7 0 10 5 0 7 1 462 
9 0 8 8 0 8 1 463 
7 0 6 8 0 7 1 464 
4 0 7 9 0 5 1 465 
0 0 0 0 0 0 1 702 
0 0 0 0 0 0 2 467 496 
10 2 0 6 0 3 1 468 
2 8 0 7 0 9 1 469 
8 8 0 10 0 8 1 470 
5 9 0 6 0 4 1 471 
10 10 0 6 0 10 2 490 472 
6 6 0 10 0 9 1 473 
1 10 0 8 0 8 1 474 
7 10 0 8 0 10 3 482 477 475 
2 9 0 8 0 10 2 479 476 
8 5 0 10 0 6 3 484 481 478 
5 3 0 9 0 10 2 484 483 
8 7 0 10 0 4 1 480 
3 10 0 7 0 10 1 480 
1 10 0 7 0 3 1 483 
9 6 0 4 0 9 1 483 
4 4 0 9 0 9 1 484 
4 9 0 6 0 10 1 485 
8 8 0 6 0 6 1 485 
9 10 0 7 0 6 1 486 
7 7 0 8 0 7 2 495 487 
4 5 0 3 0 4 1 488 
5 7 0 8 0 9 1 489 
3 7 0 10 0 4 1 491 
9 4 0 5 0 10 1 491 
2 10 0 10 0 4 1 492 
7 10 0 7 0 10 1 493 
4 8 0 9 0 8 1 494 
6 5 0 5 0 6 1 497 
6 8 0 6 0 10 1 497 
9 10 0 10 0 9 1 497 
0 0 0 0 0 0 1 702 
0 0 0 0 0 0 1 499 
4 0 8 1 8 0 1 500 
4 0 4 7 6 0 2 502 501 
3 0 10 6 10 0 2 504 503 
6 0 4 9 8 0 1 503 
8 0 6 9 5 0 1 505 
9 0 3 10 6 0 1 505 
3 0 10 5 10 0 2 508 506 
5 0 7 6 8 0 1 507 
7 0 10 8 9 0 2 511 509 
6 0 6 6 4 0 2 511 509 
6 0 8 8 10 0 2 515 510 
4 0 6 8 3 0 1 512 
2 0 6 5 9 0 1 512 
1 0 6 10 7 0 2 516 513 
9 0 6 4 8 0 1 514 
3 0 8 9 5 0 2 519 517 
4 0 10 10 10 0 1 516 
10 0 10 8 5 0 2 519 518 
8 0 10 10 9 0 1 518 
1 0 9 8 4 0 2 522 520 
2 0 7 8 8 0 2 522 521 
4 0 10 10 8 0 1 521 
1 0 8 5 10 0 1 523 
4 0 10 10 8 0 1 523 
1 0 7 3 5 0 1 524 
3 0 5 8 4 0 1 525 
7 0 5 10 10 0 1 526 
10 0 6 8 10 0 1 527 
4 0 10 9 8 0 1 528 
10 0 10 7 10 0 1 529 
0 0 0 0 0 0 1 702 
0 0 0 0 0 0 4 531 533 536 538 
2 4 0 0 0 0 1 532 
7 7 0 0 0 0 1 534 
3 8 0 0 0 0 1 534 
1 10 0 0 0 0 1 535 
7 9 0 0 0 0 1 537 
4 8 0 0 0 0 1 537 
2 10 0 0 0 0 1 539 
4 10 0 0 0 0 1 539 
2 4 0 0 0 0 1 540 
4 5 0 0 0 0 1 541 
0 0 0 0 0 0 5 542 564 586 608 630 
0 0 0 0 0 0 3 543 561 562 
1 0 0 6 0 3 2 554 544 
4 0 0 8 0 4 2 560 545 
8 0 0 5 0 6 1 546 
2 0 0 7 0 9 1 547 
3 0 0 3 0 9 1 548 
5 0 0 7 0 7 2 559 549 
7 0 0 9 0 7 1 550 
4 0 0 8 0 9 1 551 
7 0 0 6 0 8 1 552 
9 0 0 10 0 9 1 553 
6 0 0 4 0 10 1 555 
5 0 0 5 0 5 1 555 
8 0 0 9 0 10 1 556 
4 0 0 10 0 10 1 557 
2 0 0 8 0 5 1 558 
1 0 0 9 0 8 1 563 
8 0 0 10 0 6 1 563 
4 0 0 10 0 10 1 563 
4 0 0 6 0 6 1 563 
1 0 0 10 0 9 1 563 
0 0 0 0 0 0 1 702 
0 0 0 0 0 0 2 565 568 
4 4 0 0 3 0 1 566 
5 10 0 0 5 0 2 578 567 
3 6 0 0 10 0 3 582 572 569 
4 10 0 0 6 0 3 582 572 571 
3 9 0 0 8 0 1 570 
6 6 0 0 8 0 1 571 
7 7 0 0 10 0 1 573 
6 9 0 0 9 0 1 573 
2 9 0 0 9 0 1 574 
6 10 0 0 6 0 1 575 
8 1 0 0 2 0 1 576 
5 5 0 0 10 0 2 584 577 
6 9 0 0 9 0 1 579 
6 10 0 0 5 0 1 579 
4 10 0 0 9 0 1 580 
9 6 0 0 8 0 1 581 
7 6 0 0 9 0 1 583 
6 5 0 0 9 0 1 583 
2 10 0 0 6 0 1 585 
3 8 0 0 9 0 1 585 
0 0 0 0 0 0 1 702 
0 0 0 0 0 0 3 587 597 600 
1 0 0 0 3 2 3 606 605 588 
6 0 0 0 6 9 1 589 
7 0 0 0 9 2 1 590 
7 0 0 0 7 10 1 591 
5 0 0 0 9 8 1 592 
8 0 0 0 6 7 1 593 
10 0 0 0 10 10 2 604 594 
2 0 0 0 6 7 1 595 
5 0 0 0 7 5 1 596 
1 0 0 0 7 10 1 598 
3 0 0 0 10 7 1 598 
3 0 0 0 10 10 1 599 
6 0 0 0 10 8 1 601 
10 0 0 0 10 10 2 605 603 
6 0 0 0 7 10 1 602 
2 0 0 0 7 10 1 603 
1 0 0 0 10 7 1 607 
3 0 0 0 5 5 1 607 
5 0 0 0 6 6 1 607 
2 0 0 0 5 7 1 607 
0 0 0 0 0 0 1 702 
0 0 0 0 0 0 2 609 611 
7 3 0 0 0 8 2 617 610 
2 10 0 0 0 7 1 613 
6 7 0 0 0 3 1 612 
2 7 0 0 0 5 2 617 615 
2 10 0 0 0 8 1 614 
3 8 0 0 0 10 1 615 
1 9 0 0 0 6 1 616 
2 5 0 0 0 7 2 621 618 
1 4 0 0 0 8 2 621 618 
5 7 0 0 0 8 1 619 
5 8 0 0 0 7 1 620 
8 7 0 0 0 6 1 622 
10 4 0 0 0 10 1 622 
9 10 0 0 0 10 2 628 623 
6 8 0 0 0 6 1 624 
2 10 0 0 0 10 1 625 
6 8 0 0 0 5 1 626 
9 9 0 0 0 7 1 627 
10 6 0 0 0 9 1 629 
7 10 0 0 0 10 1 629 
0 0 0 0 0 0 1 702 
0 0 0 0 0 0 1 631 
4 0 5 0 0 0 2 633 632 
5 0 5 0 0 0 1 634 
4 0 9 0 0 0 1 634 
2 0 8 0 0 0 1 635 
2 0 9 0 0 0 2 637 636 
9 0 8 0 0 0 2 640 638 
3 0 6 0 0 0 2 640 638 
2 0 7 0 0 0 1 639 
4 0 8 0 0 0 1 641 
7 0 10 0 0 0 1 641 
0 0 0 0 0 0 5 642 654 666 678 690 
0 0 0 0 0 0 2 643 645 
4 1 0 0 0 0 1 644 
9 8 0 0 0 0 1 646 
3 8 0 0 0 0 1 646 
6 7 0 0 0 0 2 648 647 
6 10 0 0 0 0 2 652 649 
5 10 0 0 0 0 2 652 650 
2 5 0 0 0 0 1 650 
7 7 0 0 0 0 1 651 
3 9 0 0 0 0 1 653 
7 10 0 0 0 0 1 653 
0 0 0 0 0 0 1 702 
0 0 0 0 0 0 2 655 660 
6 0 0 3 0 0 2 658 656 
3 0 0 9 0 0 1 657 
8 0 0 8 0 0 1 659 
8 0 0 3 0 0 1 659 
2 0 0 8 0 0 1 661 
5 0 0 8 0 0 1 661 
1 0 0 9 0 0 2 664 662 
5 0 0 7 0 0 1 663 
10 0 0 10 0 0 1 665 
4 0 0 10 0 0 1 665 
0 0 0 0 0 0 1 702 
0 0 0 0 0 0 1 667 
7 0 2 0 0 0 1 668 
8 0 8 0 0 0 1 669 
4 0 8 0 0 0 2 673 670 
10 0 10 0 0 0 2 676 671 
3 0 10 0 0 0 1 672 
2 0 4 0 0 0 2 675 674 
2 0 8 0 0 0 1 674 
5 0 8 0 0 0 1 677 
5 0 7 0 0 0 1 677 
8 0 10 0 0 0 1 677 
0 0 0 0 0 0 1 702 
0 0 0 0 0 0 2 679 681 
3 0 0 0 0 1 1 680 
6 0 0 0 0 8 1 682 
8 0 0 0 0 6 1 682 
2 0 0 0 0 7 1 683 
5 0 0 0 0 10 3 688 687 684 
6 0 0 0 0 10 1 685 
1 0 0 0 0 8 1 686 
4 0 0 0 0 7 1 689 
3 0 0 0 0 8 1 689 
10 0 0 0 0 10 1 689 
0 0 0 0 0 0 1 702 
0 0 0 0 0 0 3 691 695 700 
9 2 0 0 0 0 1 692 
1 10 0 0 0 0 1 693 
8 9 0 0 0 0 2 699 694 
7 2 0 0 0 0 1 696 
1 7 0 0 0 0 2 699 698 
1 10 0 0 0 0 1 697 
1 9 0 0 0 0 1 698 
6 7 0 0 0 0 1 701 
5 10 0 0 0 0 1 701 
9 9 0 0 0 0 1 701 
0 0 0 0 0 0 1 702 
0 0 0 0 0 0 0 
